T = 15; %Numero de trabajadores
N = 2; %Numero de trabajadores por turno
D = 7; %Numero de dias a trabajar
MaxDT = 5; %Maximo dias consecutivos
MaxDL = 4;%Maximo dias libres consecutivos
MinDT = 2; %Minimo dias a trabajar
numIn = 3; %Numero de pares de incompatibles
rel = [|2,4|3,5|6,1|];% pares de incompatibles
supervisores = {1,3,5,6,8,9,11,12,15}; %Los supervisores